% File represents an instance of a Composite Structure problem to be solved by a CP framework
% Created on 2025-03-26 10:41:19.674
T = 54;
n = 9;
m = 12;
edges = [(1, 2),
(4, 5),
(8, 7),
(2, 3),
(5, 6),
(8, 9),
(1, 4),
(4, 7),
(2, 5),
(8, 5),
(3, 6),
(9, 6)];
counts = [|12, 12, 12, 18,
|10, 10, 10, 18,
|10, 8, 10, 14,
|10, 12, 10, 18,
|10, 10, 10, 14,
|10, 8, 10, 10,
|10, 8, 10, 16,
|10, 10, 10, 18,
|10, 10, 10, 12|];
